%mem=100GB
%nproc=28
#p opt(nomicro,recalc=5) freq geom=conn external="/share/home/jwweng/XO/stable20240408/external_uxo.py" nosymm

handle gaussian file - write gjf file with lines

0 1
 C            0.70278510          -1.18646440           3.35946250
 C            1.43325630           0.00000000           3.34298500
 C            0.70278510           1.18646440           3.35946250
 C           -0.70278510           1.18646440           3.35946250
 C           -1.43325630           0.00000000           3.34298500
 C           -0.70278510          -1.18646440           3.35946250
 C            1.13907590           2.65343710           3.36192340
 C            0.70293380           3.23210650           2.01402610
 C           -0.70293380           3.23210650           2.01402610
 C           -1.13907590           2.65343710           3.36192340
 C            1.43329390           3.68332670           0.91693760
 C            0.70272620           4.16483570          -0.16769430
 C           -0.70272620           4.16483570          -0.16769430
 C           -1.43329390           3.68332670           0.91693760
 C           -0.00000000           3.24071260           4.25477230
 C            1.13907590          -2.65343710           3.36192340
 C           -1.13907590          -2.65343710           3.36192340
 C           -0.70293380          -3.23210650           2.01402610
 C            0.70293380          -3.23210650           2.01402610
 C           -1.43329390          -3.68332670           0.91693760
 C           -0.70272620          -4.16483570          -0.16769430
 C            0.70272620          -4.16483570          -0.16769430
 C            1.43329390          -3.68332670           0.91693760
 C           -0.00000000          -3.24071260           4.25477230
 C            1.14026590          -4.72889350          -1.52129550
 C            0.70360450          -3.69919580          -2.56464820
 C           -0.70360450          -3.69919580          -2.56464820
 C           -1.14026590          -4.72889350          -1.52129550
 C            1.41540040          -2.84403110          -3.38941550
 C            0.69680990          -1.98523660          -4.23631260
 C           -0.69680990          -1.98523660          -4.23631260
 C           -1.41540040          -2.84403110          -3.38941550
 C            0.00000000          -5.77623540          -1.72690810
 C           -1.14026590           4.72889350          -1.52129550
 C           -0.70360450           3.69919580          -2.56464820
 C            0.70360450           3.69919580          -2.56464820
 C            1.14026590           4.72889350          -1.52129550
 C           -1.41540040           2.84403110          -3.38941550
 C           -0.69680990           1.98523660          -4.23631260
 C            0.69680990           1.98523660          -4.23631260
 C            1.41540040           2.84403110          -3.38941550
 C            0.00000000           5.77623540          -1.72690810
 H            2.52101940           0.00000000           3.34046910
 H           -2.52101940           0.00000000           3.34046910
 H            2.17070710           2.84849860           3.65839110
 H           -2.17070710           2.84849860           3.65839110
 H            2.52101040           3.67870660           0.91478020
 H           -2.52101040           3.67870660           0.91478020
 H           -0.00000000           2.82749910           5.26840380
 H           -0.00000000           4.33515330           4.27679370
 H            2.17070710          -2.84849860           3.65839110
 H           -2.17070710          -2.84849860           3.65839110
 H           -2.52101040          -3.67870660           0.91478020
 H            2.52101040          -3.67870660           0.91478020
 H           -0.00000000          -2.82749910           5.26840380
 H           -0.00000000          -4.33515330           4.27679370
 H            2.17169090          -5.07750950          -1.58855480
 H           -2.17169090          -5.07750950          -1.58855480
 H            2.50257060          -2.83559060          -3.39130840
 H            1.23404210          -1.31304360          -4.89893280
 H           -1.23404210          -1.31304360          -4.89893280
 H           -2.50257060          -2.83559060          -3.39130840
 H            0.00000000          -6.55712580          -0.96020700
 H            0.00000000          -6.21210430          -2.73102630
 H           -2.17169090           5.07750950          -1.58855480
 H            2.17169090           5.07750950          -1.58855480
 H           -2.50257060           2.83559060          -3.39130840
 H           -1.23404210           1.31304360          -4.89893280
 H            1.23404210           1.31304360          -4.89893280
 H            2.50257060           2.83559060          -3.39130840
 H            0.00000000           6.55712580          -0.96020700
 H            0.00000000           6.21210430          -2.73102630

 1 2 1.5 6 1.5 16 1.0 
 2 3 1.5 43 1.0 
 3 4 1.5 7 1.0 
 4 5 1.5 10 1.0 
 5 6 1.5 44 1.0 
 6 17 1.0 
 7 8 1.0 15 1.0 45 1.0 
 8 9 1.5 11 1.5 
 9 10 1.0 14 1.5 
 10 15 1.0 46 1.0 
 11 12 1.5 47 1.0 
 12 13 1.5 37 1.0 
 13 14 1.5 34 1.0 
 14 48 1.0 
 15 49 1.0 50 1.0 
 16 19 1.0 24 1.0 51 1.0 
 17 18 1.0 24 1.0 52 1.0 
 18 19 1.5 20 1.5 
 19 23 1.5 
 20 21 1.5 53 1.0 
 21 22 1.5 28 1.0 
 22 23 1.5 25 1.0 
 23 54 1.0 
 24 55 1.0 56 1.0 
 25 26 1.0 33 1.0 57 1.0 
 26 27 1.5 29 1.5 
 27 28 1.0 32 1.5 
 28 33 1.0 58 1.0 
 29 30 1.5 59 1.0 
 30 31 1.5 60 1.0 
 31 32 1.5 61 1.0 
 32 62 1.0 
 33 63 1.0 64 1.0 
 34 35 1.0 42 1.0 65 1.0 
 35 36 1.5 38 1.5 
 36 37 1.0 41 1.5 
 37 42 1.0 66 1.0 
 38 39 1.5 67 1.0 
 39 40 1.5 68 1.0 
 40 41 1.5 69 1.0 
 41 70 1.0 
 42 71 1.0 72 1.0 
 43 
 44 
 45 
 46 
 47 
 48 
 49 
 50 
 51 
 52 
 53 
 54 
 55 
 56 
 57 
 58 
 59 
 60 
 61 
 62 
 63 
 64 
 65 
 66 
 67 
 68 
 69 
 70 
 71 
 72 







