%chk=ethanol.chk
%mem=8GB
%nproc=8
# B3LYP/6-311+G(d,p) opt freq

Ethanol optimization and frequency

0 1
C    -0.747868    0.249749    0.031830
C     0.557539    -0.525019    -0.278540
O     1.660528    0.287548    0.067870
H    -0.919825    1.126890    0.658030
H    -1.578831    -0.418940    0.196670
H    -0.742937    0.592830    -0.998020
H     0.530958    -1.180220    0.583710
H     0.577890    -1.104870    -1.263710
H     2.429522    -0.278530    -0.193940

