%chk=molecule.chk
%mem=4GB
%nproc=4
# B3LYP/6-31G(d)

Water molecule optimization

0 1
 O   0.000000   0.000000   0.117300
 H   -0.756950   0.000000   -0.469200
 H   0.756950   0.000000   -0.469200

1 2 1.0 3 1.0

