# Water molecule optimization
# Created by GaussView 6.0.16
#

#
#

@<TRIPOS>MOLECULE
Molecule Name
3 2
SMALL
NO_CHARGES


@<TRIPOS>ATOM
1 O1     0.0000     0.0000     0.1173 O
2 H2    -0.7570     0.0000    -0.4692 H
3 H3     0.7570     0.0000    -0.4692 H
@<TRIPOS>BOND
1 1 2 1
2 1 3 1
